p cnf 100 400
1 -100 -15 0
1 -100 -1 0
1 -100 6 0
1 -100 56 0
1 -99 -77 0
1 -99 -47 0
1 -99 29 0
1 -99 62 0
1 -98 -80 0
1 -98 -1 0
1 -98 29 0
1 -98 44 0
1 -97 -78 0
1 -97 68 0
1 -97 81 0
1 -97 84 0
1 -96 -24 0
1 -96 50 0
1 -96 58 0
1 -96 65 0
1 -95 -1 0
1 -95 15 0
1 -95 24 0
1 -95 77 0
1 -94 -7 0
1 -94 -5 0
1 -94 73 0
1 -94 78 0
1 -93 -17 0
1 -93 7 0
1 -93 11 0
1 -93 94 0
1 -92 -89 0
1 -92 -72 0
1 -92 -27 0
1 -92 83 0
1 -91 -39 0
1 -91 -33 0
1 -91 10 0
1 -91 68 0
1 -90 -25 0
1 -90 11 0
1 -90 52 0
1 -90 84 0
1 -89 -85 0
1 -89 45 0
1 -89 61 0
1 -88 -55 0
1 -88 -31 0
1 -88 64 0
1 -88 66 0
1 -87 -18 0
1 -87 19 0
1 -87 54 0
1 -87 85 0
1 -86 -27 0
1 -86 49 0
1 -86 76 0
1 -86 87 0
1 -85 -62 0
1 -85 -39 0
1 -85 79 0
1 -84 -16 0
1 -84 -14 0
1 -84 -6 0
1 -84 26 0
1 -83 -73 0
1 -83 -60 0
1 -83 71 0
1 -83 94 0
1 -82 -46 0
1 -82 -13 0
1 -82 -11 0
1 -82 58 0
1 -81 -62 0
1 -81 -53 0
1 -81 -31 0
1 -81 2 0
1 -80 -29 0
1 -80 -19 0
1 -80 1 0
1 -79 -46 0
1 -79 -15 0
1 -79 28 0
1 -79 93 0
1 -78 -59 0
1 -78 -12 0
1 -78 100 0
1 -77 41 0
1 -77 63 0
1 -77 85 0
1 -76 -61 0
1 -76 -53 0
1 -76 -12 0
1 -76 51 0
1 -75 -60 0
1 -75 -8 0
1 -75 22 0
1 -75 42 0
1 -74 -57 0
1 -74 -54 0
1 -74 -13 0
1 -74 83 0
1 -73 -41 0
1 -73 3 0
1 -73 31 0
1 -72 -26 0
1 -72 -7 0
1 -72 34 0
1 -71 -20 0
1 -71 66 0
1 -71 81 0
1 -71 94 0
1 -70 -44 0
1 -70 -24 0
1 -70 2 0
1 -70 28 0
1 -69 -50 0
1 -69 -34 0
1 -69 10 0
1 -69 67 0
1 -68 -58 0
1 -68 -45 0
1 -68 71 0
1 -68 74 0
1 -67 -49 0
1 -67 -30 0
1 -67 -11 0
1 -67 43 0
1 -66 -2 0
1 -66 16 0
1 -66 26 0
1 -66 47 0
1 -65 27 0
1 -65 30 0
1 -65 37 0
1 -65 93 0
1 -64 -20 0
1 -64 30 0
1 -64 45 0
1 -64 94 0
1 -63 -40 0
1 -63 10 0
1 -63 13 0
1 -63 19 0
1 -62 3 0
1 -62 5 0
1 -61 -57 0
1 -61 -43 0
1 -61 21 0
1 -60 -38 0
1 -60 58 0
1 -59 -37 0
1 -59 45 0
1 -59 80 0
1 -58 -36 0
1 -58 -19 0
1 -58 31 0
1 -57 37 0
1 -57 56 0
1 -56 -9 0
1 -56 18 0
1 -56 50 0
1 -56 83 0
1 -55 -32 0
1 -55 -21 0
1 -55 62 0
1 -54 7 0
1 -54 64 0
1 -54 88 0
1 -53 -19 0
1 -53 48 0
1 -52 -42 0
1 -52 -31 0
1 -52 43 0
1 -52 80 0
1 -51 -37 0
1 -51 -24 0
1 -51 38 0
1 -51 95 0
1 -50 -36 0
1 -50 60 0
1 -50 79 0
1 -49 -14 0
1 -49 35 0
1 -49 46 0
1 -48 -11 0
1 -48 44 0
1 -48 52 0
1 -48 75 0
1 -47 72 0
1 -47 98 0
1 -47 100 0
1 -46 -40 0
1 -46 -39 0
1 -45 -17 0
1 -45 78 0
1 -45 97 0
1 -44 42 0
1 -44 69 0
1 -44 84 0
1 -43 -30 0
1 -43 -18 0
1 -43 81 0
1 -42 5 0
1 -42 32 0
1 -42 36 0
1 -41 -33 0
1 -41 52 0
1 -41 53 0
1 -40 61 0
1 -40 71 0
1 -39 -9 0
1 -38 -22 0
1 -38 33 0
1 -38 41 0
1 -37 -21 0
1 -37 43 0
1 -36 -4 0
1 -36 45 0
1 -35 3 0
1 -35 67 0
1 -35 90 0
1 -35 100 0
1 -34 47 0
1 -34 80 0
1 -34 86 0
1 -33 17 0
1 -33 97 0
1 -32 -28 0
1 -32 87 0
1 -32 91 0
1 -31 29 0
1 -30 35 0
1 -30 55 0
1 -29 -16 0
1 -29 17 0
1 -29 74 0
1 -28 -15 0
1 -28 55 0
1 -28 57 0
1 -27 20 0
1 -27 64 0
1 -26 49 0
1 -26 63 0
1 -26 73 0
1 -25 18 0
1 -25 76 0
1 -25 90 0
1 -24 -6 0
1 -23 -18 0
1 -23 14 0
1 -23 36 0
1 -23 39 0
1 -22 -13 0
1 -22 -8 0
1 -22 75 0
1 -21 23 0
1 -21 35 0
1 -20 -4 0
1 -20 77 0
1 -19 86 0
1 -18 48 0
1 -17 18 0
1 -17 42 0
1 -16 9 0
1 -16 10 0
1 -15 28 0
1 -14 -5 0
1 -14 56 0
1 -13 69 0
1 -12 88 0
1 -12 92 0
1 -11 1 0
1 -10 5 0
1 -10 22 0
1 -10 38 0
1 -10 67 0
1 -9 6 0
1 -9 69 0
1 -8 23 0
1 -8 90 0
1 -7 33 0
1 -7 74 0
1 -6 -2 0
1 -6 75 0
1 -5 46 0
1 -5 55 0
1 -4 7 0
1 -4 41 0
1 -3 4 0
1 -3 32 0
1 -3 89 0
1 -3 93 0
1 -2 44 0
1 -2 63 0
1 -1 35 0
1 1 38 0
1 1 60 0
1 2 11 0
1 2 30 0
1 3 85 0
1 4 25 0
1 4 37 0
1 4 51 0
1 5 16 0
1 6 71 0
1 6 98 0
1 7 91 0
1 8 21 0
1 8 60 0
1 8 95 0
1 8 98 0
1 9 18 0
1 9 64 0
1 9 75 0
1 11 80 0
1 12 22 0
1 12 40 0
1 12 78 0
1 12 92 0
1 13 30 0
1 13 34 0
1 13 87 0
1 14 16 0
1 14 23 0
1 14 99 0
1 15 41 0
1 15 69 0
1 15 81 0
1 16 21 0
1 17 58 0
1 17 73 0
1 19 20 0
1 19 66 0
1 20 24 0
1 20 70 0
1 21 28 0
1 22 39 0
1 23 96 0
1 24 26 0
1 24 88 0
1 25 27 0
1 25 50 0
1 25 53 0
1 26 53 0
1 27 88 0
1 27 89 0
1 29 84 0
1 31 33 0
1 31 82 0
1 32 60 0
1 32 79 0
1 33 36 0
1 34 46 0
1 34 62 0
1 36 40 0
1 37 62 0
1 38 65 0
1 39 47 0
1 39 91 0
1 40 51 0
1 40 66 0
1 42 68 0
1 43 97 0
1 44 49 0
1 46 55 0
1 47 99 0
1 48 86 0
1 48 99 0
1 49 65 0
1 50 59 0
1 51 91 0
1 52 77 0
1 53 96 0
1 54 59 0
1 54 63 0
1 54 95 0
1 56 70 0
1 57 73 0
1 57 74 0
1 57 95 0
1 59 68 0
1 59 82 0
1 61 79 0
1 61 93 0
1 65 99 0
1 67 72 0
1 70 89 0
1 70 90 0
1 72 85 0
1 72 92 0
1 76 82 0
1 76 89 0
1 77 82 0
1 78 83 0
1 86 100 0
1 87 96 0
1 92 97 0
1 96 98 0
